Traveling Salesman Problem/TSP_generados/Aleatorio1620391155_14.tsp
NAME: Aleatorio1620391155_14.tsp
COMMENT: Randomly generated scenario
TYPE: TSP
DIMENSION: 14
EDGE_WEIGHT_TYPE: ATT
NODE_COORD_SECTION
1 22.43 38.17
2 40.8 11.39
3 3.22 4.8
4 14.48 2.0
5 25.17 31.85
6 48.48 19.13
7 6.95 18.92
8 1.42 26.55
9 20.1 11.04
10 43.48 46.35
11 4.18 24.16
12 7.36 24.67
13 39.81 12.26
14 46.57 37.73
