Traveling Salesman Problem/TSP_generados/Aleatorio1620391155_14.opt.tour
NAME: Aleatorio1620391155_14.opt.tour
COMMENT: Optimal solution for Aleatorio1620391155_14 (161.15928110361486)
TYPE: TOUR
DIMENSION: 14
TOUR_SECTION
1 5 12 8 11 7 3 4 9 13 2 6 14 10
-1
EOF
